p cnf 145 494
4 -2 0
4 3 0
2 -3 -4 0
5 4 0
5 -4 0
1 -5 -6 0
-1 5 -6 0
1 5 6 0
-1 -5 6 0
7 3 -8 0
-7 -3 -8 0
7 -3 8 0
-7 3 8 0
-6 -8 -9 0
6 8 -9 0
-6 8 9 0
6 -8 9 0
13 12 0
13 3 0
-12 -3 -13 0
-15 -14 0
-15 7 0
14 -7 15 0
-16 13 0
-16 15 0
-13 -15 16 0
-17 11 0
-17 16 0
-11 -16 17 0
10 -17 -18 0
-10 17 -18 0
10 17 18 0
-10 -17 18 0
9 -18 -19 0
-9 18 -19 0
9 18 19 0
-9 -18 19 0
-21 20 0
-21 11 0
-20 -11 21 0
-20 22 -23 0
20 -22 -23 0
-20 -22 23 0
20 22 23 0
-24 21 0
-24 23 0
-21 -23 24 0
26 24 0
26 25 0
-24 -25 -26 0
-27 -26 0
-27 22 0
26 -22 27 0
-27 3 -28 0
27 -3 -28 0
-27 -3 28 0
27 3 28 0
29 21 0
29 -28 0
-21 28 -29 0
-31 30 0
-31 -30 0
-31 30 -32 0
31 -30 -32 0
-31 -30 32 0
31 30 32 0
33 23 0
33 -26 0
-23 26 -33 0
34 32 0
34 33 0
-32 -33 -34 0
-36 -34 0
-36 35 0
34 -35 36 0
37 -29 0
37 36 0
29 -36 -37 0
38 33 0
38 23 0
-33 -23 -38 0
-40 -38 0
-40 -39 0
38 39 40 0
-5 -40 -41 0
5 40 -41 0
-5 40 41 0
5 -40 41 0
41 -42 0
-41 -42 0
43 38 0
43 -12 0
-38 12 -43 0
33 43 -44 0
-33 -43 -44 0
33 -43 44 0
-33 43 44 0
45 -1 0
45 -27 0
1 27 -45 0
46 44 0
46 -45 0
-44 45 -46 0
-48 34 0
-48 -47 0
-34 47 48 0
4 -23 -49 0
-4 23 -49 0
4 23 49 0
-4 -23 49 0
-50 20 0
-50 49 0
-20 -49 50 0
48 -50 -51 0
-48 50 -51 0
48 50 51 0
-48 -50 51 0
-46 51 -52 0
46 -51 -52 0
-46 -51 52 0
46 51 52 0
42 -52 -53 0
-42 52 -53 0
42 52 53 0
-42 -52 53 0
-37 -53 -54 0
37 53 -54 0
-37 53 54 0
37 -53 54 0
55 19 0
55 54 0
-19 -54 -55 0
-49 -56 -57 0
49 56 -57 0
-49 56 57 0
49 -56 57 0
58 5 0
58 15 0
-5 -15 -58 0
57 -58 -59 0
-57 58 -59 0
57 58 59 0
-57 -58 59 0
-12 -20 -60 0
12 20 -60 0
-12 20 60 0
12 -20 60 0
-61 59 0
-61 -60 0
-59 60 61 0
62 2 0
62 61 0
-2 -61 -62 0
-63 -28 0
-63 23 0
28 -23 63 0
-64 62 0
-64 63 0
-62 -63 64 0
34 15 -65 0
-34 -15 -65 0
34 -15 65 0
-34 15 65 0
64 65 -66 0
-64 -65 -66 0
64 -65 66 0
-64 65 66 0
-67 25 0
-67 -32 0
-25 32 67 0
68 67 0
68 16 0
-67 -16 -68 0
-69 12 0
-69 68 0
-12 -68 69 0
-66 69 -70 0
66 -69 -70 0
-66 -69 70 0
66 69 70 0
-71 33 0
-71 3 0
-33 -3 71 0
11 -71 -72 0
-11 71 -72 0
11 71 72 0
-11 -71 72 0
-73 8 0
-73 -72 0
-8 72 73 0
-74 30 0
-74 -32 0
-30 32 74 0
74 39 -75 0
-74 -39 -75 0
74 -39 75 0
-74 39 75 0
76 75 0
76 4 0
-75 -4 -76 0
-77 -76 0
-77 60 0
76 -60 77 0
78 -73 0
78 77 0
73 -77 -78 0
70 -78 -79 0
-70 78 -79 0
70 78 79 0
-70 -78 79 0
-49 -71 -80 0
49 71 -80 0
-49 71 80 0
49 -71 80 0
-81 43 0
-81 -80 0
-43 80 81 0
-82 -24 0
-82 -47 0
24 47 82 0
83 -81 0
83 82 0
81 -82 -83 0
-17 7 -84 0
17 -7 -84 0
-17 -7 84 0
17 7 84 0
-85 30 0
-85 84 0
-30 -84 85 0
-86 -12 0
-86 -14 0
12 14 86 0
-86 -22 -87 0
86 22 -87 0
-86 22 87 0
86 -22 87 0
88 85 0
88 -87 0
-85 87 -88 0
14 56 -89 0
-14 -56 -89 0
14 -56 89 0
-14 56 89 0
90 2 0
90 5 0
-2 -5 -90 0
-91 -90 0
-91 -58 0
90 58 91 0
89 91 -92 0
-89 -91 -92 0
89 -91 92 0
-89 91 92 0
92 11 -93 0
-92 -11 -93 0
92 -11 93 0
-92 11 93 0
-94 88 0
-94 -93 0
-88 93 94 0
-95 83 0
-95 94 0
-83 -94 95 0
79 95 -96 0
-79 -95 -96 0
79 -95 96 0
-79 95 96 0
-97 33 0
-97 2 0
-33 -2 97 0
-74 31 -98 0
74 -31 -98 0
-74 -31 98 0
74 31 98 0
97 98 -99 0
-97 -98 -99 0
97 -98 99 0
-97 98 99 0
4 2 -100 0
-4 -2 -100 0
4 -2 100 0
-4 2 100 0
101 59 0
101 43 0
-59 -43 -101 0
-30 -26 -102 0
30 26 -102 0
-30 26 102 0
30 -26 102 0
103 -102 0
103 15 0
102 -15 -103 0
104 31 0
104 103 0
-31 -103 -104 0
-105 101 0
-105 104 0
-101 -104 105 0
34 -90 -106 0
-34 90 -106 0
34 90 106 0
-34 -90 106 0
107 105 0
107 -106 0
-105 106 -107 0
100 107 -108 0
-100 -107 -108 0
100 -107 108 0
-100 107 108 0
109 99 0
109 108 0
-99 -108 -109 0
110 1 0
110 -31 0
-1 31 -110 0
-8 110 -111 0
8 -110 -111 0
-8 -110 111 0
8 110 111 0
-109 -111 -112 0
109 111 -112 0
-109 111 112 0
109 -111 112 0
113 96 0
113 112 0
-96 -112 -113 0
-114 58 0
-114 6 0
-58 -6 114 0
-115 32 0
-115 -114 0
-32 114 115 0
116 20 0
116 4 0
-20 -4 -116 0
116 -60 -117 0
-116 60 -117 0
116 60 117 0
-116 -60 117 0
118 86 0
118 -117 0
-86 117 -118 0
119 -60 0
119 20 0
60 -20 -119 0
-120 118 0
-120 119 0
-118 -119 120 0
121 -115 0
121 -120 0
115 120 -121 0
122 -90 0
122 23 0
90 -23 -122 0
123 31 0
123 -31 0
124 122 0
124 123 0
-122 -123 -124 0
-125 -121 0
-125 124 0
121 -124 125 0
-126 -25 0
-126 21 0
25 -21 126 0
-127 -125 0
-127 -126 0
125 126 127 0
128 123 0
128 102 0
-123 -102 -128 0
-102 4 -129 0
102 -4 -129 0
-102 -4 129 0
102 4 129 0
-25 13 -130 0
25 -13 -130 0
-25 -13 130 0
25 13 130 0
-131 -129 0
-131 130 0
129 -130 131 0
-128 131 -132 0
128 -131 -132 0
-128 -131 132 0
128 131 132 0
-133 -17 0
-133 39 0
17 -39 133 0
-134 132 0
-134 133 0
-132 -133 134 0
-135 76 0
-135 20 0
-76 -20 135 0
136 -87 0
136 -103 0
87 103 -136 0
137 38 0
137 -33 0
-38 33 -137 0
138 137 0
138 -89 0
-137 89 -138 0
-139 138 0
-139 -3 0
-138 3 139 0
-140 -136 0
-140 -139 0
136 139 140 0
135 -140 -141 0
-135 140 -141 0
135 140 141 0
-135 -140 141 0
134 -141 -142 0
-134 141 -142 0
134 141 142 0
-134 -141 142 0
127 -142 -143 0
-127 142 -143 0
127 142 143 0
-127 -142 143 0
-144 113 0
-144 -143 0
-113 143 144 0
145 55 0
145 -144 0
-55 144 -145 0
-138 -43 -12 -47 0
87 -91 -24 -122 -94 0
-25 122 -8 22 0
122 -20 -132 -131 0
-74 70 99 -7 0
13 -8 0
-66 -132 0
106 72 -9 138 32 70 0
108 -109 6 -25 0
-130 -110 -97 0
-26 30 128 137 0
106 -48 -91 -108 31 0
-32 -14 -45 -91 -93 -24 0
23 145 -90 -51 0
26 129 -107 -68 -18 38 0
47 145 55 -16 0
-39 65 -138 0
62 -76 -29 -35 116 78 0
115 -15 39 -89 99 137 0
-137 -62 -39 0
-65 -123 -4 0
134 137 80 -31 0
138 -60 -94 0
-7 -72 -93 33 -30 -18 0
115 73 128 -46 0
105 -99 36 0
-9 87 -62 -143 0
-86 88 -72 0
-25 120 -5 -126 0
68 -73 0
74 -131 -32 -56 80 -94 0
19 34 73 96 -87 -135 0
-26 99 -67 0
8 -89 7 -15 0
-78 21 -128 -90 0
-74 79 67 136 0
114 -7 0
-6 -115 121 -3 -94 -15 0
-111 70 -42 37 79 0
17 -133 -62 -79 -69 0
106 -144 -132 0
-109 71 -116 0
98 14 -63 -133 102 117 0
-66 -134 77 0
51 -138 52 0
67 -17 -117 -56 135 -8 0
51 55 41 -30 96 0
26 -121 126 95 0
-68 -62 -98 -8 -12 0
-30 97 34 132 0
-55 -125 143 -66 75 -94 0
3 32 7 54 -135 0
-62 -81 -73 -101 -56 0
-58 -40 -94 -67 -24 0
138 -64 -141 -70 -60 0
88 140 -18 -41 3 56 0
48 -49 144 0
126 42 -93 114 99 0
26 -77 83 -30 -137 106 0
-23 125 0
-74 86 -82 -39 -42 0
72 102 76 -27 0
97 -49 8 34 0
142 -69 86 -95 -82 -11 0
145 0
